
******************************************************************************
This program contains Ipopt, a library for large-scale nonlinear optimization.
 Ipopt is released as open source code under the Eclipse Public License (EPL).
         For more information visit http://projects.coin-or.org/Ipopt
******************************************************************************

This is Ipopt version 3.12.6, running with linear solver ma57.

Number of nonzeros in equality constraint Jacobian...:    76091
Number of nonzeros in inequality constraint Jacobian.:        0
Number of nonzeros in Lagrangian Hessian.............:    30004

Total number of variables............................:    25004
                     variables with only lower bounds:    10000
                variables with lower and upper bounds:        0
                     variables with only upper bounds:        0
Total number of equality constraints.................:    20004
Total number of inequality constraints...............:        0
        inequality constraints with only lower bounds:        0
   inequality constraints with lower and upper bounds:        0
        inequality constraints with only upper bounds:        0

iter    objective    inf_pr   inf_du lg(mu)  ||d||  lg(rg) alpha_du alpha_pr  ls
   0  4.9999900e-01 9.92e+01 6.37e-01  -1.0 0.00e+00    -  0.00e+00 0.00e+00   0
   1  5.5941551e-01 9.90e+01 1.11e+00  -1.0 1.99e+02  -4.0 9.92e-04 2.02e-03h  1
   2  6.8007026e-01 9.89e+01 1.11e+00  -1.0 2.14e+02  -4.5 1.69e-03 1.61e-03f  1
   3  8.4712219e-01 9.87e+01 1.10e+00  -1.0 1.72e+02  -5.0 1.84e-03 1.76e-03f  1
   4  1.0655483e+00 9.85e+01 1.10e+00  -1.0 1.32e+02  -5.4 1.95e-03 2.11e-03f  1
   5  1.3640283e+00 9.82e+01 1.10e+00  -1.0 1.29e+02  -5.9 2.18e-03 2.70e-03f  1
   6  1.7149355e+00 9.79e+01 1.14e+00  -1.0 1.00e+02  -6.4 2.62e-03 3.01e-03f  1
   7  2.1735849e+00 9.76e+01 1.14e+00  -1.0 1.14e+02  -6.9 3.69e-03 3.72e-03f  1
   8  2.9442014e+00 9.70e+01 1.14e+00  -1.0 6.76e+01  -7.3 4.84e-03 5.83e-03f  1
   9  4.2755478e+00 9.61e+01 1.14e+00  -1.0 9.55e+01  -7.8 8.46e-03 9.20e-03f  1
iter    objective    inf_pr   inf_du lg(mu)  ||d||  lg(rg) alpha_du alpha_pr  ls
  10  6.3055455e+00 9.49e+01 1.14e+00  -1.0 1.30e+02  -8.3 1.10e-02 1.26e-02f  1
  11  8.8037286e+00 9.36e+01 1.11e+00  -1.0 1.58e+02  -8.8 1.81e-02 1.41e-02f  1
  12  1.6924764e+01 8.99e+01 4.61e+00  -1.0 1.66e+02  -9.2 1.44e-02 3.95e-02f  1
  13  4.4416337e+01 8.05e+01 5.14e+00  -1.0 1.53e+02  -9.7 6.40e-02 1.05e-01f  1
  14  1.3528395e+02 5.68e+01 2.66e+00  -1.0 1.25e+02 -10.2 2.18e-01 2.94e-01f  1
  15  3.2228513e+02 1.67e+01 3.50e+00  -1.0 8.90e+01 -10.7 5.50e-01 7.06e-01f  1
  16  3.4472341e+02 1.13e+01 2.04e+01  -1.0 9.23e+00 -11.2 6.83e-01 3.22e-01f  1
  17  3.7481954e+02 4.85e+00 2.45e+00  -1.0 4.55e+00 -11.6 4.62e-01 5.71e-01f  1
  18  3.8506793e+02 2.62e+00 3.02e+01  -1.0 6.23e+01 -12.1 5.18e-01 4.60e-01h  1
  19  3.8724648e+02 1.74e+00 4.81e+01  -1.0 1.49e+02 -12.6 3.91e-01 3.35e-01f  1
iter    objective    inf_pr   inf_du lg(mu)  ||d||  lg(rg) alpha_du alpha_pr  ls
  20  3.8813915e+02 1.55e+00 3.80e+01  -1.0 1.50e+02  -4.7 1.01e-01 1.10e-01h  1
  21  3.8930426e+02 1.35e+00 5.07e+01  -1.0 1.41e+02  -5.2 1.60e-01 1.32e-01f  1
  22  3.9341154e+02 6.18e-01 2.10e+01  -1.0 7.02e+01  -3.9 5.37e-01 5.41e-01h  1
  23  3.9933905e+02 8.41e-06 1.23e+02  -1.0 1.65e+01  -4.4 9.17e-01 1.00e+00h  1
  24  3.9946934e+02 1.48e-05 1.95e-03  -1.0 1.71e+01  -3.9 1.00e+00 1.00e+00f  1
  25  1.5533178e+01 1.39e-07 6.42e-05  -2.5 1.69e+00  -4.4 1.00e+00 1.00e+00f  1
  26  8.0369504e-01 1.12e-08 1.78e-05  -3.8 1.41e+00  -4.9 1.00e+00 1.00e+00f  1
Reallocating memory for MA57: lfact (1253407)
  27  3.3735284e-02 5.04e-09 1.15e-04  -5.7 4.16e-01  -5.4 9.96e-01 9.96e-01f  1
Reallocating memory for MA57: lfact (6445040)
  28  1.0236566e-02 5.14e-09 7.86e-03  -5.7 2.98e-01  -5.9 9.92e-01 9.93e-01f  1
  29  7.2885022e-03 5.14e-09 2.81e-03  -5.7 5.06e-01  -6.3 9.74e-01 9.75e-01f  1
iter    objective    inf_pr   inf_du lg(mu)  ||d||  lg(rg) alpha_du alpha_pr  ls
  30  6.9124759e-03 5.14e-09 1.53e-03  -5.7 7.07e-01  -6.8 7.97e-01 7.97e-01f  1
  31  6.8318059e-03 5.14e-09 3.34e-08  -5.7 6.41e-01  -7.3 1.00e+00 1.00e+00f  1
  32  2.2210256e-04 5.33e-09 2.32e-03  -8.6 3.23e-01  -7.8 8.98e-01 8.98e-01f  1
Reallocating memory for MA57: lfact (7099685)
  33 -4.1603314e-04 5.35e-09 1.52e-03  -8.6 9.92e-01  -8.2 8.42e-01 8.42e-01h  1
  34 -5.4323596e-04 5.35e-09 1.06e-02  -8.6 2.99e+00  -8.7 9.19e-01 9.18e-01f  1
  35 -5.9769550e-04 5.35e-09 5.59e-03  -8.6 9.00e+00  -9.2 7.77e-01 7.77e-01f  1
  36 -6.0096569e-04 5.35e-09 2.67e-03  -8.6 2.70e+01  -9.7 1.79e-02 1.79e-02f  1
  37 -6.0207033e-04 5.35e-09 2.66e-03  -8.6 4.15e+02 -10.1 2.10e-03 2.10e-03f  1
  38 -6.5992239e-04 5.35e-09 2.57e-03  -8.6 2.38e+02 -10.6 3.62e-02 3.62e-02f  1
  39 -6.7119791e-04 5.35e-09 2.53e-03  -8.6 9.06e+01 -10.2 1.83e-02 1.83e-02f  1
iter    objective    inf_pr   inf_du lg(mu)  ||d||  lg(rg) alpha_du alpha_pr  ls
  40 -7.7477480e-04 5.35e-09 2.39e-03  -8.6 2.69e+02 -10.7 5.74e-02 5.74e-02f  1
  41 -7.7477481e-04 5.35e-09 2.39e-03  -8.6 6.29e+02 -10.2 3.04e-08 1.52e-08h  2
  42 -7.7474209e-04 5.35e-09 3.83e-01  -8.6 2.92e+02  -4.4 5.43e-03 3.39e-04f  5
  43 -7.7477279e-04 5.35e-09 7.41e+01  -8.6 2.09e-02  -4.9 9.95e-01 1.53e-02h  5
  44 -7.7665637e-04 5.35e-09 5.79e-09  -8.6 1.32e-03  -5.4 1.00e+00 1.00e+00s 22

Number of Iterations....: 44

                                   (scaled)                 (unscaled)
Objective...............:  -7.7665636929057319e-04   -7.7665636929057319e-04
Dual infeasibility......:   5.7852707159718398e-09    5.7852707159718398e-09
Constraint violation....:   5.3518661443868757e-09    5.3518661443868757e-09
Complementarity.........:   2.5124000331769270e-09    2.5124000331769270e-09
Overall NLP error.......:   5.3518661443868757e-09    5.7852707159718398e-09


Number of objective function evaluations             = 79
Number of objective gradient evaluations             = 45
Number of equality constraint evaluations            = 79
Number of inequality constraint evaluations          = 0
Number of equality constraint Jacobian evaluations   = 45
Number of inequality constraint Jacobian evaluations = 0
Number of Lagrangian Hessian evaluations             = 44
Total CPU secs in IPOPT (w/o function evaluations)   =     19.270
Total CPU secs in NLP function evaluations           =      0.703

EXIT: Optimal Solution Found.

************************ CUTEst statistics ************************


 Package used            :  IPOPT
 Problem                 :  A0NNSNSL  
 # variables             =           60012
 # constraints           =           20004
 # objective functions   =        0.1250000E+03
 # objective gradients   =        0.4600000E+02
 # objective Hessians    =        0.4500000E+02
 # Hessian-vector prdct  =        0.0000000E+00
 # constraints functions =        0.1260000E+03
 # constraints gradients =        0.4700000E+02
 # constraints Hessians  =        0.4500000E+02
 Exit code               =               0
 Final f                 =  -0.7766564E-03
 Set up time             =            0.39 seconds
 Solve time              =           39.30 seconds


******************************************************************

System Time =      14.4309997559 s.
